p cnf 12 50 
12 8 -7 0
11 4 3 0
11 2 1 0
-5 1 4 0
-10 -6 1 0
11 -2 -1 0
-8 2 -9 0
-4 -12 -5 0
12 -10 -4 0
-11 12 6 0
-2 5 12 0
-12 4 -1 0
-9 12 -11 0
-1 -3 -8 0
3 12 7 0
11 -6 9 0
-3 12 8 0
1 -3 -6 0
-2 12 9 0
9 -8 -4 0
-5 8 6 0
3 4 2 0
12 3 7 0
-8 10 -4 0
-3 11 10 0
5 -12 -8 0
10 -3 -7 0
6 10 8 0
2 -6 10 0
3 -7 -9 0
3 -12 -2 0
7 -1 12 0
-4 -5 -6 0
1 12 10 0
2 -4 5 0
3 10 7 0
-11 4 -7 0
-7 -12 -10 0
2 3 -12 0
-6 12 7 0
-7 11 9 0
5 -2 9 0
5 -4 11 0
-11 -12 -5 0
-8 -9 -11 0
-8 -3 9 0
-12 8 3 0
9 -4 6 0
-5 8 -7 0
6 -12 3 0
